1000
200 200
1 140 210
2 140 71
3 140 877
4 140 766
5 140 767
6 140 929
7 139 36
8 139 52
9 139 669
10 139 702
11 139 530
12 139 307
13 139 462
14 139 159
15 139 111
16 139 200
17 139 438
18 138 86
19 138 39
20 138 422
21 138 664
22 137 509
23 137 706
24 137 593
25 137 537
26 137 720
27 136 261
28 136 307
29 136 707
30 136 149
31 136 191
32 135 140
33 135 802
34 135 683
35 135 193
36 135 386
37 134 358
38 134 941
39 134 57
40 134 199
41 134 71
42 134 73
43 134 638
44 133 842
45 133 156
46 133 440
47 133 302
48 133 456
49 133 319
50 133 867
51 133 597
52 133 37
53 133 330
54 132 379
55 132 921
56 132 466
57 132 622
58 132 99
59 132 897
60 131 116
61 131 936
62 131 253
63 131 239
64 131 653
65 131 231
66 131 959
67 131 467
68 131 653
69 131 15
70 130 267
71 130 121
72 130 150
73 130 20
74 130 342
75 130 876
76 130 398
77 130 625
78 129 531
79 129 944
80 129 647
81 129 603
82 128 259
83 128 745
84 128 644
85 128 626
86 128 921
87 128 74
88 128 480
89 128 362
90 128 543
91 128 277
92 128 246
93 127 725
94 127 171
95 127 117
96 127 15
97 127 512
98 127 447
99 127 723
100 127 585
101 126 898
102 126 998
103 126 640
104 126 597
105 126 427
106 126 42
107 126 937
108 126 630
109 125 36
110 125 76
111 125 148
112 125 586
113 125 78
114 125 882
115 125 617
116 125 84
117 125 835
118 124 568
119 124 574
120 124 317
121 124 53
122 124 242
123 124 609
124 124 568
125 124 88
126 124 105
127 124 673
128 124 26
129 124 396
130 124 966
131 123 286
132 123 118
133 123 40
134 123 327
135 123 670
136 123 448
137 123 249
138 122 283
139 122 495
140 122 8
141 122 733
142 122 683
143 122 99
144 122 9
145 122 466
146 122 560
147 122 630
148 122 95
149 122 100
150 121 369
151 121 18
152 121 496
153 121 162
154 121 762
155 121 109
156 121 820
157 120 616
158 120 650
159 120 693
160 120 207
161 120 758
162 119 114
163 119 757
164 119 844
165 119 254
166 119 722
167 118 858
168 118 836
169 118 658
170 118 340
171 118 575
172 118 822
173 117 670
174 117 360
175 117 179
176 117 564
177 117 620
178 117 207
179 117 841
180 116 627
181 116 280
182 116 953
183 116 960
184 115 434
185 115 210
186 115 337
187 115 19
188 115 138
189 115 705
190 115 34
191 115 994
192 114 121
193 114 526
194 113 20
195 113 602
196 113 826
197 113 313
198 112 99
199 112 588
200 112 216
201 112 722
202 112 217
203 112 202
204 112 651
205 112 77
206 112 801
207 112 162
208 111 313
209 111 206
210 111 373
211 111 435
212 111 347
213 111 115
214 110 580
215 110 510
216 110 130
217 110 452
218 110 703
219 110 230
220 110 931
221 110 484
222 109 123
223 109 286
224 109 468
225 109 646
226 109 913
227 109 803
228 109 431
229 109 620
230 109 231
231 109 575
232 109 202
233 108 624
234 108 401
235 108 803
236 108 423
237 107 879
238 107 983
239 107 418
240 107 602
241 107 85
242 107 859
243 107 915
244 106 397
245 106 896
246 106 197
247 106 2
248 106 126
249 106 991
250 106 390
251 106 377
252 106 367
253 106 863
254 106 52
255 105 9
256 105 783
257 105 453
258 105 266
259 105 31
260 105 542
261 105 947
262 104 160
263 104 71
264 104 165
265 104 327
266 104 702
267 104 539
268 104 223
269 104 703
270 104 602
271 103 908
272 103 21
273 103 457
274 103 501
275 103 30
276 103 626
277 103 128
278 103 714
279 102 109
280 102 313
281 102 903
282 102 950
283 102 118
284 102 328
285 102 7
286 102 244
287 102 988
288 102 447
289 102 438
290 102 326
291 102 347
292 102 602
293 101 490
294 101 272
295 101 122
296 101 864
297 101 250
298 101 795
299 100 340
300 100 785
301 100 10
302 100 850
303 100 543
304 100 194
305 100 228
306 100 805
307 100 194
308 100 955
309 100 877
310 100 871
311 100 453
312 99 447
313 99 635
314 99 333
315 99 931
316 99 933
317 99 8
318 99 656
319 99 662
320 99 444
321 99 379
322 99 300
323 99 479
324 99 400
325 98 841
326 98 973
327 98 317
328 98 821
329 98 117
330 98 446
331 98 663
332 98 503
333 98 129
334 98 113
335 98 7
336 97 21
337 97 147
338 97 294
339 97 154
340 97 90
341 97 879
342 96 703
343 96 9
344 96 317
345 96 654
346 96 103
347 96 488
348 96 256
349 96 701
350 96 696
351 95 235
352 95 848
353 95 537
354 95 507
355 95 201
356 94 225
357 94 385
358 94 855
359 94 626
360 94 742
361 94 903
362 94 547
363 93 960
364 93 51
365 93 634
366 93 887
367 93 99
368 93 173
369 93 505
370 93 934
371 93 11
372 93 531
373 93 538
374 93 19
375 92 330
376 92 669
377 92 788
378 92 114
379 92 473
380 92 373
381 92 659
382 91 14
383 91 974
384 91 411
385 91 128
386 91 381
387 91 376
388 90 846
389 90 85
390 90 944
391 90 87
392 90 361
393 89 288
394 89 500
395 89 709
396 89 139
397 88 623
398 88 348
399 88 535
400 88 806
401 88 781
402 88 220
403 88 508
404 88 546
405 88 144
406 88 850
407 88 345
408 88 568
409 88 47
410 87 953
411 87 293
412 87 728
413 87 783
414 87 625
415 86 704
416 86 443
417 86 163
418 86 397
419 86 686
420 86 46
421 86 554
422 86 296
423 86 437
424 86 504
425 85 386
426 85 339
427 85 356
428 85 708
429 85 826
430 85 779
431 85 766
432 85 519
433 85 221
434 85 274
435 85 229
436 85 798
437 85 95
438 84 783
439 84 567
440 84 642
441 84 462
442 83 141
443 83 753
444 83 400
445 83 135
446 83 390
447 83 545
448 83 231
449 82 922
450 82 808
451 82 483
452 82 954
453 82 488
454 82 541
455 82 568
456 82 742
457 81 799
458 81 80
459 81 311
460 81 438
461 81 599
462 81 1000
463 80 60
464 80 263
465 80 462
466 80 859
467 80 261
468 80 974
469 80 151
470 80 527
471 79 180
472 79 750
473 79 179
474 79 168
475 79 915
476 79 304
477 79 611
478 78 140
479 78 623
480 78 428
481 78 621
482 78 604
483 78 496
484 78 733
485 78 483
486 78 952
487 78 218
488 78 845
489 77 36
490 77 745
491 77 917
492 77 33
493 77 65
494 77 976
495 77 275
496 77 769
497 76 697
498 76 65
499 76 614
500 76 332
501 76 571
502 76 678
503 76 147
504 76 634
505 76 104
506 76 631
507 76 965
508 75 79
509 75 399
510 75 411
511 75 841
512 75 709
513 75 501
514 75 862
515 75 618
516 75 160
517 75 703
518 74 680
519 74 832
520 74 727
521 74 334
522 74 309
523 74 205
524 74 462
525 74 695
526 74 521
527 74 668
528 73 149
529 73 191
530 73 955
531 73 719
532 72 417
533 72 513
534 72 5
535 72 378
536 72 225
537 72 498
538 72 608
539 72 549
540 71 841
541 71 696
542 71 344
543 71 995
544 71 751
545 71 397
546 71 112
547 71 210
548 71 675
549 71 894
550 71 629
551 70 268
552 70 16
553 70 707
554 70 646
555 70 404
556 70 95
557 70 911
558 70 262
559 70 77
560 70 230
561 70 415
562 69 323
563 69 960
564 69 959
565 69 141
566 69 40
567 69 253
568 69 826
569 69 5
570 69 74
571 69 610
572 69 397
573 69 274
574 69 175
575 68 278
576 68 521
577 68 558
578 68 343
579 68 80
580 68 781
581 68 550
582 67 160
583 67 987
584 67 575
585 67 418
586 67 284
587 67 465
588 67 494
589 67 468
590 67 419
591 67 650
592 67 801
593 67 643
594 66 362
595 66 476
596 66 671
597 66 416
598 66 575
599 66 101
600 65 752
601 65 628
602 65 125
603 65 796
604 65 360
605 65 124
606 64 336
607 64 829
608 64 384
609 64 701
610 64 285
611 64 20
612 64 694
613 64 577
614 63 470
615 63 305
616 63 688
617 63 672
618 63 771
619 63 134
620 63 891
621 63 205
622 63 285
623 63 919
624 63 225
625 63 601
626 62 145
627 62 361
628 62 888
629 62 967
630 62 998
631 62 65
632 62 110
633 62 957
634 62 273
635 62 566
636 61 944
637 61 759
638 61 124
639 61 243
640 61 117
641 61 322
642 61 937
643 61 657
644 61 993
645 60 907
646 60 236
647 60 98
648 60 286
649 60 683
650 60 152
651 60 783
652 60 360
653 60 761
654 60 353
655 60 59
656 60 779
657 59 742
658 59 260
659 59 609
660 59 469
661 59 412
662 59 333
663 59 674
664 59 562
665 59 857
666 58 472
667 58 549
668 58 707
669 58 630
670 58 53
671 58 894
672 58 176
673 58 900
674 58 942
675 58 612
676 58 685
677 58 229
678 57 474
679 57 219
680 57 338
681 57 778
682 57 538
683 57 799
684 57 54
685 57 985
686 57 52
687 57 860
688 56 430
689 56 824
690 56 228
691 56 433
692 56 396
693 55 101
694 55 85
695 55 557
696 55 621
697 55 140
698 55 341
699 55 929
700 55 552
701 55 973
702 55 738
703 55 310
704 54 965
705 54 591
706 54 165
707 54 665
708 54 936
709 54 313
710 54 778
711 54 388
712 54 253
713 53 35
714 53 340
715 53 139
716 53 457
717 53 394
718 53 708
719 53 313
720 53 612
721 53 738
722 52 608
723 52 247
724 52 254
725 52 836
726 52 915
727 52 345
728 52 386
729 51 350
730 51 192
731 51 416
732 51 111
733 51 190
734 51 60
735 50 259
736 50 173
737 50 59
738 50 593
739 50 385
740 50 874
741 50 970
742 50 944
743 50 686
744 50 572
745 50 16
746 50 12
747 49 159
748 49 466
749 49 75
750 49 582
751 49 231
752 49 143
753 49 411
754 49 366
755 49 241
756 49 546
757 49 341
758 49 874
759 49 218
760 49 492
761 48 993
762 48 460
763 48 141
764 48 432
765 48 776
766 48 708
767 48 155
768 48 255
769 47 643
770 47 8
771 47 272
772 47 310
773 47 97
774 47 100
775 47 717
776 47 717
777 47 793
778 46 214
779 46 891
780 46 416
781 46 409
782 46 821
783 46 275
784 45 695
785 45 638
786 45 473
787 45 592
788 45 376
789 45 161
790 44 268
791 44 788
792 44 787
793 44 22
794 44 390
795 44 255
796 43 255
797 43 128
798 43 359
799 43 494
800 43 374
801 43 651
802 43 6
803 43 200
804 43 921
805 43 1000
806 43 476
807 43 985
808 43 411
809 43 231
810 43 285
811 43 769
812 42 657
813 42 984
814 42 788
815 42 593
816 41 619
817 41 372
818 41 85
819 41 212
820 41 434
821 41 246
822 41 484
823 41 713
824 40 669
825 40 313
826 40 616
827 40 83
828 40 385
829 40 434
830 40 530
831 40 762
832 40 516
833 40 646
834 40 386
835 39 133
836 39 569
837 39 328
838 39 404
839 39 946
840 39 520
841 39 316
842 39 583
843 39 924
844 38 71
845 38 39
846 38 520
847 38 517
848 38 892
849 38 644
850 38 792
851 37 632
852 37 427
853 37 537
854 37 608
855 37 488
856 37 525
857 37 859
858 36 162
859 36 630
860 36 138
861 36 121
862 36 974
863 36 62
864 36 319
865 36 302
866 36 304
867 36 516
868 36 509
869 36 777
870 36 960
871 35 897
872 35 178
873 35 655
874 35 584
875 35 914
876 35 285
877 35 264
878 34 92
879 34 127
880 34 197
881 34 915
882 34 285
883 34 114
884 34 547
885 34 674
886 33 740
887 33 345
888 33 766
889 33 455
890 33 934
891 33 62
892 33 767
893 33 309
894 32 559
895 32 140
896 32 832
897 32 352
898 32 444
899 31 649
900 31 104
901 31 451
902 31 6
903 31 775
904 31 111
905 31 492
906 31 117
907 31 792
908 31 768
909 30 770
910 30 55
911 30 226
912 30 796
913 30 178
914 30 243
915 30 737
916 30 726
917 30 89
918 29 325
919 29 566
920 29 505
921 29 442
922 29 124
923 29 714
924 29 871
925 29 264
926 29 291
927 29 537
928 29 51
929 28 648
930 28 835
931 28 902
932 28 872
933 28 418
934 28 409
935 28 422
936 28 146
937 28 872
938 28 419
939 28 359
940 28 677
941 28 437
942 27 713
943 27 401
944 27 440
945 27 333
946 27 457
947 26 288
948 26 638
949 26 895
950 26 821
951 26 511
952 26 355
953 26 391
954 25 323
955 25 796
956 25 475
957 25 656
958 25 262
959 25 85
960 25 863
961 25 310
962 25 736
963 25 419
964 24 859
965 24 962
966 24 503
967 24 914
968 24 498
969 24 115
970 24 872
971 24 176
972 24 441
973 24 713
974 24 924
975 24 290
976 23 794
977 23 591
978 23 398
979 23 68
980 23 544
981 23 741
982 22 433
983 22 867
984 22 411
985 22 120
986 22 937
987 22 488
988 22 297
989 21 329
990 21 19
991 21 10
992 21 306
993 21 108
994 20 929
995 20 709
996 20 123
997 20 969
998 20 733
999 20 677
1000 20 2
